\ENCODING=ISO-8859-1
\Problem name: IloCplex

Minimize
 obj: x1 - 4 x(0) - 2 x(1) - x(2) - x(3) - x(4)
Subject To
 link(0):               2 x(0) - y(0)(0) <= 1
 link(1):               x(0) + x(1) - y(1)(0) <= 1
 link(2):               2 x(1) - y(1)(1) <= 1
 link(3):               x(0) + x(2) - y(2)(0) <= 1
 link(4):               x(1) + x(2) - y(2)(1) <= 1
 link(5):               2 x(2) - y(2)(2) <= 1
 link(6):               x(0) + x(3) - y(3)(0) <= 1
 link(7):               x(1) + x(3) - y(3)(1) <= 1
 link(8):               x(2) + x(3) - y(3)(2) <= 1
 link(9):               2 x(3) - y(3)(3) <= 1
 link(10):              x(0) + x(4) - y(4)(0) <= 1
 link(11):              x(1) + x(4) - y(4)(1) <= 1
 link(12):              x(2) + x(4) - y(4)(2) <= 1
 link(13):              x(3) + x(4) - y(4)(3) <= 1
 link(14):              2 x(4) - y(4)(4) <= 1
 y(0)(0)_smaller_xi(0): - x(0) + y(0)(0) <= 0
 y(0)(0)_smaller_xj(0): - x(0) + y(0)(0) <= 0
 y(1)(0)_smaller_xi(1): - x(1) + y(1)(0) <= 0
 y(1)(0)_smaller_xj(0): - x(0) + y(1)(0) <= 0
 y(1)(1)_smaller_xi(1): - x(1) + y(1)(1) <= 0
 y(1)(1)_smaller_xj(1): - x(1) + y(1)(1) <= 0
 y(2)(0)_smaller_xi(2): - x(2) + y(2)(0) <= 0
 y(2)(0)_smaller_xj(0): - x(0) + y(2)(0) <= 0
 y(2)(1)_smaller_xi(2): - x(2) + y(2)(1) <= 0
 y(2)(1)_smaller_xj(1): - x(1) + y(2)(1) <= 0
 y(2)(2)_smaller_xi(2): - x(2) + y(2)(2) <= 0
 y(2)(2)_smaller_xj(2): - x(2) + y(2)(2) <= 0
 y(3)(0)_smaller_xi(3): - x(3) + y(3)(0) <= 0
 y(3)(0)_smaller_xj(0): - x(0) + y(3)(0) <= 0
 y(3)(1)_smaller_xi(3): - x(3) + y(3)(1) <= 0
 y(3)(1)_smaller_xj(1): - x(1) + y(3)(1) <= 0
 y(3)(2)_smaller_xi(3): - x(3) + y(3)(2) <= 0
 y(3)(2)_smaller_xj(2): - x(2) + y(3)(2) <= 0
 y(3)(3)_smaller_xi(3): - x(3) + y(3)(3) <= 0
 y(3)(3)_smaller_xj(3): - x(3) + y(3)(3) <= 0
 y(4)(0)_smaller_xi(4): - x(4) + y(4)(0) <= 0
 y(4)(0)_smaller_xj(0): - x(0) + y(4)(0) <= 0
 y(4)(1)_smaller_xi(4): - x(4) + y(4)(1) <= 0
 y(4)(1)_smaller_xj(1): - x(1) + y(4)(1) <= 0
 y(4)(2)_smaller_xi(4): - x(4) + y(4)(2) <= 0
 y(4)(2)_smaller_xj(2): - x(2) + y(4)(2) <= 0
 y(4)(3)_smaller_xi(4): - x(4) + y(4)(3) <= 0
 y(4)(3)_smaller_xj(3): - x(3) + y(4)(3) <= 0
 y(4)(4)_smaller_xi(4): - x(4) + y(4)(4) <= 0
 y(4)(4)_smaller_xj(4): - x(4) + y(4)(4) <= 0
 CompleteBlock:         x1 - 2 y(0)(0) - 2 y(1)(0) - 2 y(2)(0) - 2 y(2)(1)
                        - 2 y(2)(2) - 2 y(3)(0) - 4 y(3)(1) - 4 y(3)(2)
                        - 2 y(4)(0) - 2 y(4)(1) - 2 y(4)(2) - 4 y(4)(3)  = 0
Bounds
 0 <= x(0) <= 1
 0 <= x(1) <= 1
 0 <= x(2) <= 1
 0 <= x(3) <= 1
 0 <= x(4) <= 1
 0 <= y(0)(0) <= 1
 0 <= y(1)(0) <= 1
 0 <= y(1)(1) <= 1
 0 <= y(2)(0) <= 1
 0 <= y(2)(1) <= 1
 0 <= y(2)(2) <= 1
 0 <= y(3)(0) <= 1
 0 <= y(3)(1) <= 1
 0 <= y(3)(2) <= 1
 0 <= y(3)(3) <= 1
 0 <= y(4)(0) <= 1
 0 <= y(4)(1) <= 1
 0 <= y(4)(2) <= 1
 0 <= y(4)(3) <= 1
 0 <= y(4)(4) <= 1
Binaries
 x(0)  x(1)  x(2)  x(3)  x(4)  y(0)(0)  y(1)(0)  y(1)(1)  y(2)(0)  y(2)(1) 
 y(2)(2)  y(3)(0)  y(3)(1)  y(3)(2)  y(3)(3)  y(4)(0)  y(4)(1)  y(4)(2) 
 y(4)(3)  y(4)(4) 
End
